c colouring generated by benchmark framework
p edge 25 160
v 1 2
v 2 0
v 3 5
v 4 3
v 5 1
v 6 4
v 7 1
v 8 2
v 9 0
v 10 5
v 11 0
v 12 5
v 13 3
v 14 1
v 15 2
v 16 6
v 17 2
v 18 0
v 19 5
v 20 4
v 21 5
v 22 4
v 23 6
v 24 2
v 25 0
